(set-option :print-success false)
(set-logic QF_UF)
(declare-sort x37 0)
(declare-sort x135 0)
(declare-fun x3 () x135)
(declare-fun x9 () x135)
(declare-fun x158 () x135)
(declare-fun x104 (x135 x135) x135)
(declare-fun x68 () x135)
(declare-fun x82 () x135)
(declare-fun x64 (x135 x135) x135)
(assert (and (and (and (= (x64 x9 x9) x158) (= x3 (x64 x82 x158))) (= x9 (x64 x82 x68))) (= (x64 x82 x82) x68)))
(assert (or (or (or (or (and (and (not (= x9 (x64 (x64 x9 x158) x158))) (and (and (not (= x82 (x64 (x64 x82 x158) x158))) (not (= x158 (x64 (x64 x158 x158) x158)))) (not (= (x64 (x64 x3 x158) x158) x3)))) (not (= (x64 (x64 x68 x158) x158) x68))) (and (not (= x68 (x64 (x64 x68 x82) x82))) (and (and (and (not (= x82 (x64 (x64 x82 x82) x82))) (not (= (x64 (x64 x158 x82) x82) x158))) (not (= (x64 (x64 x3 x82) x82) x3))) (not (= x9 (x64 (x64 x9 x82) x82)))))) (and (and (and (and (not (= (x64 (x64 x158 x3) x3) x158)) (not (= (x64 (x64 x82 x3) x3) x82))) (not (= (x64 (x64 x3 x3) x3) x3))) (not (= (x64 (x64 x9 x3) x3) x9))) (not (= (x64 (x64 x68 x3) x3) x68)))) (and (and (and (and (not (= (x64 (x64 x82 x9) x9) x82)) (not (= x158 (x64 (x64 x158 x9) x9)))) (not (= (x64 (x64 x3 x9) x9) x3))) (not (= x9 (x64 (x64 x9 x9) x9)))) (not (= (x64 (x64 x68 x9) x9) x68)))) (and (and (and (not (= x3 (x64 (x64 x3 x68) x68))) (and (not (= x82 (x64 (x64 x82 x68) x68))) (not (= x158 (x64 (x64 x158 x68) x68))))) (not (= (x64 (x64 x9 x68) x68) x9))) (not (= x68 (x64 (x64 x68 x68) x68))))))
(assert (let ((x25 (x64 x3 x82)) (x136 (x64 x9 x3)) (x62 (x64 x82 x3)) (x87 (x64 x9 x82)) (x129 (x64 x9 x68)) (x53 (x64 x158 x68)) (x156 (x64 x82 x68)) (x147 (x64 x3 x3)) (x93 (x64 x68 x158)) (x36 (x64 x3 x158)) (x43 (x64 x158 x9)) (x56 (x64 x3 x9)) (x123 (x64 x9 x9)) (x84 (x64 x68 x82)) (x76 (x64 x9 x158)) (x15 (x64 x68 x9)) (x31 (x64 x3 x68)) (x146 (x64 x158 x158)) (x122 (x64 x82 x158)) (x1 (x64 x82 x9)) (x113 (x64 x68 x3)) (x83 (x64 x158 x3)) (x10 (x64 x82 x82)) (x115 (x64 x158 x82)) (x121 (x64 x68 x68))) (and (and (and (and (and (and (and (and (or (or (or (= x146 x3) (or (= x146 x82) (= x146 x158))) (= x9 x146)) (= x146 x68)) (or (= x115 x68) (or (= x9 x115) (or (= x115 x3) (or (= x115 x158) (= x82 x115)))))) (or (or (or (= x83 x3) (or (= x83 x82) (= x158 x83))) (= x9 x83)) (= x68 x83))) (or (or (or (= x3 x43) (or (= x43 x158) (= x43 x82))) (= x43 x9)) (= x43 x68))) (or (= x53 x68) (or (or (= x3 x53) (or (= x82 x53) (= x158 x53))) (= x53 x9)))) (and (or (= x156 x68) (or (= x9 x156) (or (or (= x156 x82) (= x156 x158)) (= x3 x156)))) (and (and (or (or (= x9 x62) (or (= x3 x62) (or (= x62 x82) (= x158 x62)))) (= x68 x62)) (and (or (= x68 x10) (or (= x9 x10) (or (= x3 x10) (or (= x10 x158) (= x10 x82))))) (or (= x122 x68) (or (= x122 x9) (or (= x122 x3) (or (= x122 x158) (= x82 x122))))))) (or (or (= x9 x1) (or (= x3 x1) (or (= x82 x1) (= x158 x1)))) (= x1 x68))))) (and (or (or (or (= x3 x31) (or (= x158 x31) (= x31 x82))) (= x31 x9)) (= x68 x31)) (and (or (= x56 x68) (or (= x9 x56) (or (= x56 x3) (or (= x82 x56) (= x158 x56))))) (and (or (or (= x9 x147) (or (or (= x147 x82) (= x158 x147)) (= x147 x3))) (= x147 x68)) (and (or (or (or (or (= x25 x82) (= x25 x158)) (= x3 x25)) (= x25 x9)) (= x68 x25)) (or (= x68 x36) (or (or (= x36 x3) (or (= x82 x36) (= x36 x158))) (= x9 x36)))))))) (and (and (and (and (or (or (= x9 x87) (or (= x3 x87) (or (= x87 x158) (= x82 x87)))) (= x87 x68)) (or (or (= x9 x76) (or (= x76 x3) (or (= x76 x158) (= x76 x82)))) (= x68 x76))) (or (= x136 x68) (or (= x136 x9) (or (or (= x136 x82) (= x158 x136)) (= x3 x136))))) (or (= x123 x68) (or (or (or (= x123 x82) (= x123 x158)) (= x3 x123)) (= x123 x9)))) (or (= x129 x68) (or (or (= x3 x129) (or (= x129 x158) (= x82 x129))) (= x9 x129))))) (and (and (and (or (or (or (= x3 x113) (or (= x82 x113) (= x158 x113))) (= x9 x113)) (= x68 x113)) (and (or (or (= x9 x93) (or (= x93 x3) (or (= x93 x158) (= x93 x82)))) (= x68 x93)) (or (or (= x9 x84) (or (or (= x84 x158) (= x82 x84)) (= x3 x84))) (= x68 x84)))) (or (= x15 x68) (or (= x9 x15) (or (= x15 x3) (or (= x82 x15) (= x158 x15)))))) (or (= x121 x68) (or (or (or (= x82 x121) (= x121 x158)) (= x121 x3)) (= x9 x121)))))))
(assert (and (not (= x9 x68)) (and (not (= x68 x3)) (and (not (= x3 x9)) (and (and (and (and (and (and (not (= x82 x158)) (not (= x158 x3))) (not (= x9 x158))) (not (= x68 x158))) (not (= x3 x82))) (not (= x9 x82))) (not (= x68 x82)))))))
(assert (let ((x147 (x64 x3 x3)) (x36 (x64 x158 x3)) (x31 (x64 x68 x3)) (x122 (x64 x158 x82)) (x76 (x64 x158 x9)) (x84 (x64 x82 x68)) (x25 (x64 x82 x3)) (x136 (x64 x3 x9)) (x123 (x64 x9 x9)) (x121 (x64 x68 x68)) (x87 (x64 x82 x9)) (x93 (x64 x158 x68)) (x43 (x64 x9 x158)) (x83 (x64 x3 x158)) (x15 (x64 x9 x68)) (x129 (x64 x68 x9)) (x62 (x64 x3 x82)) (x1 (x64 x9 x82)) (x56 (x64 x9 x3)) (x53 (x64 x68 x158)) (x156 (x64 x68 x82)) (x113 (x64 x3 x68)) (x10 (x64 x82 x82)) (x115 (x64 x82 x158)) (x146 (x64 x158 x158))) (or (or (and (and (not (= x9 (x64 x123 x123))) (and (and (not (= (x64 x76 x76) x158)) (not (= (x64 x87 x87) x82))) (not (= (x64 x136 x136) x3)))) (not (= (x64 x129 x129) x68))) (or (and (not (= x68 (x64 x31 x31))) (and (not (= (x64 x56 x56) x9)) (and (not (= (x64 x147 x147) x3)) (and (not (= (x64 x25 x25) x82)) (not (= (x64 x36 x36) x158)))))) (or (and (and (and (not (= (x64 x83 x83) x3)) (and (not (= x158 (x64 x146 x146))) (not (= x82 (x64 x115 x115))))) (not (= (x64 x43 x43) x9))) (not (= (x64 x53 x53) x68))) (and (not (= x68 (x64 x156 x156))) (and (not (= x9 (x64 x1 x1))) (and (and (not (= x158 (x64 x122 x122))) (not (= x82 (x64 x10 x10)))) (not (= x3 (x64 x62 x62))))))))) (and (and (and (not (= x3 (x64 x113 x113))) (and (not (= x82 (x64 x84 x84))) (not (= x158 (x64 x93 x93))))) (not (= (x64 x15 x15) x9))) (not (= (x64 x121 x121) x68))))))
(assert (let ((x62 (x64 x82 x3)) (x10 (x64 x3 x82)) (x121 (= x68 (x64 x68 x68))) (x36 (x64 x158 x9)) (x123 (x64 x68 x82)) (x129 (x64 x82 x68)) (x43 (= x82 (x64 x82 x82))) (x122 (x64 x158 x3)) (x147 (x64 x82 x9)) (x146 (= x158 (x64 x158 x158))) (x31 (x64 x3 x9)) (x93 (x64 x68 x3)) (x25 (x64 x9 x82)) (x1 (= x3 (x64 x3 x3))) (x87 (x64 x68 x158)) (x83 (x64 x158 x82)) (x56 (x64 x9 x3)) (x84 (x64 x3 x68)) (x113 (x64 x68 x9)) (x136 (x64 x158 x68)) (x53 (x64 x3 x158)) (x15 (x64 x9 x68)) (x156 (x64 x9 x158)) (x115 (x64 x82 x158)) (x76 (= (x64 x9 x9) x9))) (or (or (or (or (and (= x93 x68) (= x84 x68)) (or (and (= x68 x87) (= x136 x68)) (and (= x123 x68) (= x68 x129)))) (and (= x15 x68) (= x68 x113))) (and x121 x121)) (or (or (and (= x9 x113) (= x15 x9)) (or (or (or (and (= x25 x9) (= x9 x147)) (and (= x9 x36) (= x9 x156))) (and (= x31 x9) (= x9 x56))) (and x76 x76))) (or (or (and (= x84 x3) (= x3 x93)) (or (or (or (and (= x3 x53) (= x3 x122)) (and (= x3 x10) (= x3 x62))) (and x1 x1)) (and (= x3 x31) (= x3 x56)))) (or (or (or (or (or (and (= x158 x83) (= x115 x158)) (and x146 x146)) (and (= x122 x158) (= x53 x158))) (and (= x156 x158) (= x36 x158))) (and (= x158 x136) (= x158 x87))) (or (and (= x123 x82) (= x82 x129)) (or (and (= x82 x25) (= x82 x147)) (or (or (and x43 x43) (and (= x82 x83) (= x82 x115))) (and (= x82 x10) (= x82 x62)))))))))))
(assert (and (or (= x68 (x64 x68 (x64 x68 x68))) (or (or (= (x64 x68 (x64 x68 x3)) x3) (or (= x82 (x64 x68 (x64 x68 x82))) (= x158 (x64 x68 (x64 x68 x158))))) (= (x64 x68 (x64 x68 x9)) x9))) (and (and (or (= x68 (x64 x3 (x64 x3 x68))) (or (or (= x3 (x64 x3 (x64 x3 x3))) (or (= x158 (x64 x3 (x64 x3 x158))) (= x82 (x64 x3 (x64 x3 x82))))) (= (x64 x3 (x64 x3 x9)) x9))) (and (or (= x68 (x64 x82 (x64 x82 x68))) (or (or (= (x64 x82 (x64 x82 x3)) x3) (or (= x82 (x64 x82 (x64 x82 x82))) (= (x64 x82 (x64 x82 x158)) x158))) (= (x64 x82 (x64 x82 x9)) x9))) (or (= (x64 x158 (x64 x158 x68)) x68) (or (or (or (= x158 (x64 x158 (x64 x158 x158))) (= x82 (x64 x158 (x64 x158 x82)))) (= x3 (x64 x158 (x64 x158 x3)))) (= (x64 x158 (x64 x158 x9)) x9))))) (or (= x68 (x64 x9 (x64 x9 x68))) (or (or (= (x64 x9 (x64 x9 x3)) x3) (or (= x158 (x64 x9 (x64 x9 x158))) (= x82 (x64 x9 (x64 x9 x82))))) (= x9 (x64 x9 (x64 x9 x9))))))))
(assert (not (and (and (= (x64 x68 x9) x68) (and (= x3 (x64 x68 x3)) (and (and (and (and (= x158 (x64 x9 x9)) (and (and (= x82 (x64 x9 x82)) (and (and (and (and (= x82 (x64 x3 x3)) (and (= (x64 x3 x82) x3) (and (= x158 (x64 x3 x158)) (and (and (and (and (= (x64 x82 x82) x68) (and (and (and (and (and (= (x64 x158 x158) x68) (= x158 (x64 x158 x82))) (= (x64 x158 x3) x9)) (= (x64 x158 x9) x3)) (= x82 (x64 x158 x68))) (= (x64 x82 x158) x3))) (= x158 (x64 x82 x3))) (= x82 (x64 x82 x9))) (= x9 (x64 x82 x68)))))) (= (x64 x3 x9) x9)) (= x68 (x64 x3 x68))) (= x9 (x64 x9 x158)))) (= x68 (x64 x9 x3)))) (= (x64 x9 x68) x3)) (= (x64 x68 x158) x82)) (= x9 (x64 x68 x82))))) (= (x64 x68 x68) x158))))
(assert (or (and (and (and (and (not (= x158 (x64 x68 x158))) (not (= x82 (x64 x68 x82)))) (not (= (x64 x68 x3) x3))) (not (= x9 (x64 x68 x9)))) (not (= x68 (x64 x68 x68)))) (or (or (or (and (not (= x68 (x64 x158 x68))) (and (and (and (not (= x158 (x64 x158 x158))) (not (= x82 (x64 x158 x82)))) (not (= x3 (x64 x158 x3)))) (not (= x9 (x64 x158 x9))))) (and (and (not (= x9 (x64 x82 x9))) (and (not (= (x64 x82 x3) x3)) (and (not (= x158 (x64 x82 x158))) (not (= x82 (x64 x82 x82)))))) (not (= (x64 x82 x68) x68)))) (and (not (= (x64 x3 x68) x68)) (and (not (= x9 (x64 x3 x9))) (and (not (= x3 (x64 x3 x3))) (and (not (= x158 (x64 x3 x158))) (not (= (x64 x3 x82) x82))))))) (and (and (and (and (not (= (x64 x9 x158) x158)) (not (= x82 (x64 x9 x82)))) (not (= (x64 x9 x3) x3))) (not (= x9 (x64 x9 x9)))) (not (= x68 (x64 x9 x68)))))))
(assert (let ((x43 (x64 x9 x9)) (x53 (x64 x68 x68)) (x83 (x64 x3 x3)) (x115 (x64 x82 x82)) (x146 (x64 x158 x158))) (or (and (not (= x68 x53)) (and (not (= x43 x68)) (and (and (not (= x146 x68)) (not (= x68 x115))) (not (= x68 x83))))) (or (or (and (not (= x3 x53)) (and (and (and (not (= x3 x146)) (not (= x115 x3))) (not (= x3 x83))) (not (= x3 x43)))) (or (and (not (= x53 x82)) (and (and (not (= x83 x82)) (and (not (= x115 x82)) (not (= x82 x146)))) (not (= x43 x82)))) (and (and (and (not (= x158 x83)) (and (not (= x158 x146)) (not (= x115 x158)))) (not (= x43 x158))) (not (= x158 x53))))) (and (not (= x9 x53)) (and (not (= x43 x9)) (and (not (= x9 x83)) (and (not (= x146 x9)) (not (= x9 x115))))))))))
(assert (let ((x62 (not (= (x64 x82 x3) x82))) (x122 (not (= (x64 x158 x3) x158))) (x115 (not (= x82 (x64 x82 x158)))) (x1 (not (= (x64 x3 x3) x3))) (x129 (not (= (x64 x82 x68) x82))) (x146 (not (= x158 (x64 x158 x158)))) (x156 (not (= x9 (x64 x9 x158)))) (x121 (not (= x68 (x64 x68 x68)))) (x56 (not (= (x64 x9 x3) x9))) (x15 (not (= x9 (x64 x9 x68)))) (x83 (not (= (x64 x158 x82) x158))) (x10 (not (= (x64 x3 x82) x3))) (x87 (not (= (x64 x68 x158) x68))) (x76 (not (= x9 (x64 x9 x9)))) (x84 (not (= (x64 x3 x68) x3))) (x43 (not (= (x64 x82 x82) x82))) (x136 (not (= x158 (x64 x158 x68)))) (x113 (not (= x68 (x64 x68 x9)))) (x36 (not (= (x64 x158 x9) x158))) (x25 (not (= (x64 x9 x82) x9))) (x93 (not (= x68 (x64 x68 x3)))) (x123 (not (= (x64 x68 x82) x68))) (x53 (not (= x3 (x64 x3 x158)))) (x31 (not (= x3 (x64 x3 x9)))) (x147 (not (= x82 (x64 x82 x9))))) (and (and (and (or x113 x15) (and (and (or x123 x129) (or x87 x136)) (or x93 x84))) (or x121 x121)) (and (and (and (or x76 x76) (and (or x56 x31) (and (or x36 x156) (or x147 x25)))) (or x15 x113)) (and (and (and (and (or x36 x156) (and (or x122 x53) (and (or x83 x115) (or x146 x146)))) (or x87 x136)) (and (or x129 x123) (and (or x147 x25) (and (and (or x115 x83) (or x43 x43)) (or x10 x62))))) (and (and (or x31 x56) (and (and (or x53 x122) (or x62 x10)) (or x1 x1))) (or x93 x84)))))))
(assert (let ((x84 (x64 x82 x68)) (x108 (x64 x68 x82)) (x72 (x64 x68 x9)) (x60 (x64 x68 x68)) (x53 (x64 x158 x9)) (x122 (x64 x158 x68)) (x80 (x64 x3 x3)) (x1 (x64 x3 x158)) (x83 (x64 x158 x82)) (x129 (x64 x82 x3)) (x115 (x64 x158 x158)) (x93 (x64 x82 x9)) (x43 (x64 x158 x3)) (x156 (x64 x9 x158)) (x88 (x64 x9 x9)) (x137 (x64 x9 x68)) (x30 (x64 x9 x3)) (x11 (x64 x68 x3)) (x46 (x64 x3 x68)) (x62 (x64 x82 x158)) (x36 (x64 x68 x158)) (x79 (x64 x9 x82)) (x123 (x64 x82 x82)) (x34 (x64 x3 x9)) (x121 (x64 x3 x82))) (let ((x96 (= x9 x123)) (x20 (= x68 x34)) (x133 (= x9 x80)) (x57 (= x68 x83)) (x76 (= x83 x158)) (x152 (= x36 x68)) (x77 (= x84 x3)) (x13 (= x158 x129)) (x4 (= x1 x3)) (x67 (= x79 x158)) (x132 (= x84 x9)) (x119 (= x82 x60)) (x155 (= x158 x137)) (x110 (= x46 x3)) (x71 (= x156 x82)) (x127 (= x9 x129)) (x8 (= x9 x34)) (x48 (= x9 x11)) (x150 (= x68 x88)) (x63 (= x3 x137)) (x98 (= x82 x88)) (x81 (= x82 x80)) (x148 (= x68 x93)) (x29 (= x9 x46)) (x24 (= x129 x82)) (x44 (= x34 x82)) (x97 (= x82 x72)) (x39 (= x82 x84)) (x22 (= x93 x3)) (x15 (= x123 x82)) (x6 (= x53 x158)) (x69 (= x46 x158)) (x73 (= x3 x123)) (x70 (= x93 x9)) (x131 (= x79 x9)) (x61 (= x122 x9)) (x55 (= x121 x68)) (x92 (= x158 x30)) (x74 (= x43 x158)) (x49 (= x82 x11)) (x142 (= x34 x158)) (x151 (= x137 x82)) (x146 (= x158 x115)) (x103 (= x108 x82)) (x101 (= x137 x68)) (x114 (= x122 x82)) (x149 (= x158 x60)) (x111 (= x158 x1)) (x52 (= x9 x121)) (x126 (= x108 x68)) (x42 (= x129 x68)) (x41 (= x82 x46)) (x26 (= x3 x43)) (x102 (= x80 x68)) (x139 (= x3 x30)) (x27 (= x88 x3)) (x2 (= x9 x88)) (x31 (= x62 x158)) (x105 (= x9 x53)) (x153 (= x34 x3)) (x87 (= x123 x158)) (x94 (= x11 x158)) (x140 (= x129 x3)) (x45 (= x36 x82)) (x106 (= x121 x158)) (x17 (= x83 x3)) (x143 (= x158 x88)) (x32 (= x79 x3)) (x25 (= x115 x3)) (x12 (= x84 x68)) (x35 (= x43 x68)) (x159 (= x9 x60)) (x147 (= x9 x115)) (x23 (= x53 x3)) (x19 (= x158 x36)) (x75 (= x156 x9)) (x107 (= x3 x108)) (x125 (= x72 x158)) (x113 (= x82 x83)) (x118 (= x158 x93)) (x16 (= x79 x82)) (x21 (= x9 x30)) (x7 (= x3 x62)) (x141 (= x3 x156)) (x145 (= x108 x9)) (x112 (= x30 x68)) (x56 (= x68 x115)) (x90 (= x158 x108)) (x28 (= x68 x156)) (x58 (= x72 x3)) (x95 (= x68 x46)) (x157 (= x9 x36)) (x5 (= x82 x121)) (x14 (= x3 x122)) (x65 (= x1 x82)) (x117 (= x80 x158)) (x116 (= x122 x68)) (x85 (= x43 x82)) (x99 (= x1 x9)) (x10 (= x82 x115)) (x59 (= x84 x158)) (x109 (= x43 x9)) (x18 (= x68 x62)) (x33 (= x158 x122)) (x144 (= x80 x3)) (x47 (= x68 x79)) (x89 (= x82 x30)) (x130 (= x53 x82)) (x124 (= x72 x9)) (x86 (= x68 x60)) (x51 (= x68 x72)) (x54 (= x60 x3)) (x134 (= x9 x62)) (x78 (= x3 x36)) (x40 (= x3 x11)) (x120 (= x9 x137)) (x136 (= x82 x62)) (x66 (= x121 x3)) (x50 (= x123 x68)) (x91 (= x68 x11)) (x138 (= x1 x68)) (x100 (= x158 x156)) (x128 (= x53 x68)) (x38 (= x93 x82)) (x154 (= x83 x9))) (and (and (and (and (and (and (and (or (or (or x99 (or x134 x147)) x75) x157) (or (or (or x109 (or x154 x147)) x105) x61)) (and (and (or (or x23 (or (or x17 x25) x26)) x14) (or (or x141 (or (or x25 x7) x4)) x78)) (and (and (or x114 (or x130 (or (or x10 x113) x85))) (or (or (or (or x10 x136) x65) x71) x45)) (and (or (or x100 (or x111 (or x31 x146))) x19) (or (or x6 (or (or x76 x146) x74)) x33))))) (and (or (or (or x35 (or x56 x57)) x128) x116) (or (or x28 (or (or x18 x56) x138)) x152))) (and (and (or (or x148 (or x42 (or x50 x18))) x12) (or (or (or (or x57 x50) x55) x47) x126)) (and (and (and (or (or x32 (or (or x73 x17) x66)) x107) (or (or (or (or x73 x7) x140) x22) x77)) (and (and (or (or (or x106 (or x76 x87)) x67) x90) (or (or (or x13 (or x31 x87)) x118) x59)) (and (or x39 (or x38 (or x24 (or x15 x136)))) (or x103 (or (or x5 (or x15 x113)) x16))))) (and (or x132 (or x70 (or (or x134 x96) x127))) (or x145 (or (or (or x96 x154) x52) x131)))))) (and (and (or (or (or x102 (or x42 x35)) x112) x91) (or (or x20 (or (or x55 x138) x102)) x95)) (and (and (and (and (or (or x89 (or (or x85 x24) x81)) x49) (or (or (or x81 (or x65 x5)) x44) x41)) (and (or x94 (or (or (or x74 x13) x117) x92)) (or (or (or (or x106 x111) x117) x142) x69))) (and (or x110 (or (or (or x66 x4) x144) x153)) (or (or x139 (or (or x26 x140) x144)) x40))) (and (or (or (or (or x109 x127) x133) x21) x48) (or (or (or x133 (or x99 x52)) x8) x29))))) (and (and (or (or (or x112 (or x47 x28)) x150) x101) (or x51 (or x150 (or (or x128 x148) x20)))) (and (and (and (or x63 (or x27 (or x139 (or x32 x141)))) (or (or (or x153 (or x23 x22)) x27) x58)) (and (and (or x151 (or x98 (or (or x71 x16) x89))) (or (or x98 (or x44 (or x38 x130))) x97)) (and (or x155 (or x143 (or x92 (or x100 x67)))) (or x125 (or (or x142 (or x6 x118)) x143))))) (and (or (or (or x21 (or x131 x75)) x2) x120) (or x124 (or x2 (or x8 (or x105 x70)))))))) (and (and (or x86 (or (or (or x12 x116) x95) x101)) (or x86 (or x51 (or (or x152 x126) x91)))) (and (and (or (or (or (or x157 x145) x48) x124) x159) (or x159 (or x120 (or (or x61 x132) x29)))) (and (and (or x54 (or (or (or x77 x14) x110) x63)) (or (or (or (or x107 x78) x40) x58) x54)) (and (and (or x149 (or (or (or x33 x59) x69) x155)) (or x149 (or (or x94 (or x90 x19)) x125))) (and (or (or (or (or x39 x114) x41) x151) x119) (or (or x97 (or x49 (or x45 x103))) x119))))))))))
(assert (let ((x43 (x64 x9 x9)) (x83 (x64 x3 x3)) (x115 (x64 x82 x82)) (x146 (x64 x158 x158)) (x53 (x64 x68 x68))) (and (or (or (and (and (not (= x9 (x64 x9 x43))) (and (and (not (= x9 (x64 x82 (x64 x9 x82)))) (not (= (x64 x158 (x64 x9 x158)) x9))) (not (= x9 (x64 x3 (x64 x9 x3)))))) (not (= (x64 x68 (x64 x9 x68)) x9))) (or (or (and (not (= (x64 x68 (x64 x158 x68)) x158)) (and (not (= x158 (x64 x9 (x64 x158 x9)))) (and (and (not (= (x64 x82 (x64 x158 x82)) x158)) (not (= x158 (x64 x158 x146)))) (not (= x158 (x64 x3 (x64 x158 x3))))))) (and (not (= (x64 x68 (x64 x82 x68)) x82)) (and (and (and (not (= x82 (x64 x158 (x64 x82 x158)))) (not (= (x64 x82 x115) x82))) (not (= (x64 x3 (x64 x82 x3)) x82))) (not (= (x64 x9 (x64 x82 x9)) x82))))) (and (and (and (and (not (= x3 (x64 x82 (x64 x3 x82)))) (not (= (x64 x158 (x64 x3 x158)) x3))) (not (= x3 (x64 x3 x83)))) (not (= x3 (x64 x9 (x64 x3 x9))))) (not (= (x64 x68 (x64 x3 x68)) x3))))) (and (and (and (and (not (= x68 (x64 x158 (x64 x68 x158)))) (not (= x68 (x64 x82 (x64 x68 x82))))) (not (= x68 (x64 x3 (x64 x68 x3))))) (not (= x68 (x64 x9 (x64 x68 x9))))) (not (= (x64 x68 x53) x68)))) (and (and (and (and (not (= x82 (x64 x115 x82))) (not (= x158 (x64 x146 x158)))) (not (= x3 (x64 x83 x3)))) (not (= x9 (x64 x43 x9)))) (not (= x68 (x64 x53 x68)))))))
(assert (let ((x83 (x64 x3 x3)) (x43 (x64 x9 x9)) (x115 (x64 x82 x82)) (x146 (x64 x158 x158)) (x53 (x64 x68 x68))) (or (= x68 (x64 x53 x53)) (or (= x9 (x64 x43 x43)) (or (= x3 (x64 x83 x83)) (or (= (x64 x115 x115) x82) (= x158 (x64 x146 x146))))))))
(assert (and (and (and (not (= x3 (x64 x3 x3))) (and (not (= (x64 x158 x158) x158)) (not (= x82 (x64 x82 x82))))) (not (= (x64 x9 x9) x9))) (not (= x68 (x64 x68 x68)))))
(assert (let ((x53 (x64 x68 x158)) (x25 (x64 x82 x3)) (x113 (x64 x3 x68)) (x84 (x64 x82 x68)) (x1 (x64 x9 x82)) (x122 (x64 x158 x82)) (x43 (x64 x9 x158)) (x62 (x64 x3 x82)) (x121 (x64 x68 x68)) (x156 (x64 x68 x82)) (x115 (x64 x82 x158)) (x31 (x64 x68 x3)) (x15 (x64 x9 x68)) (x146 (x64 x158 x158)) (x87 (x64 x82 x9)) (x136 (x64 x3 x9)) (x129 (x64 x68 x9)) (x83 (x64 x3 x158)) (x36 (x64 x158 x3)) (x56 (x64 x9 x3)) (x76 (x64 x158 x9)) (x10 (x64 x82 x82)) (x123 (x64 x9 x9)) (x147 (x64 x3 x3)) (x93 (x64 x158 x68))) (and (and (and (not (= x129 x121)) (and (not (= x31 x121)) (and (and (and (and (and (not (= x53 x121)) (and (and (not (= x31 x53)) (not (= x156 x53))) (not (= x129 x53)))) (not (= x156 x31))) (not (= x129 x156))) (not (= x121 x156))) (not (= x31 x129))))) (and (and (and (and (not (= x84 x87)) (and (and (and (and (and (and (not (= x84 x115)) (and (not (= x115 x87)) (and (not (= x115 x25)) (not (= x115 x10))))) (not (= x10 x25))) (not (= x87 x10))) (not (= x84 x10))) (not (= x87 x25))) (not (= x84 x25)))) (and (not (= x93 x76)) (and (and (and (not (= x122 x93)) (and (not (= x76 x122)) (and (and (and (not (= x146 x76)) (and (not (= x146 x36)) (not (= x146 x122)))) (not (= x146 x93))) (not (= x36 x122))))) (not (= x76 x36))) (not (= x36 x93))))) (and (not (= x136 x113)) (and (not (= x147 x113)) (and (not (= x147 x136)) (and (and (not (= x62 x136)) (and (not (= x147 x62)) (and (and (and (not (= x83 x147)) (not (= x83 x62))) (not (= x136 x83))) (not (= x113 x83))))) (not (= x62 x113))))))) (and (and (not (= x15 x56)) (and (not (= x123 x56)) (and (and (not (= x1 x123)) (and (not (= x1 x56)) (and (not (= x43 x15)) (and (not (= x43 x123)) (and (not (= x43 x56)) (not (= x43 x1))))))) (not (= x15 x1))))) (not (= x15 x123))))) (and (and (not (= x121 x15)) (and (and (not (= x113 x15)) (and (and (and (not (= x113 x84)) (and (not (= x121 x93)) (and (not (= x15 x93)) (and (not (= x93 x84)) (not (= x93 x113)))))) (not (= x15 x84))) (not (= x84 x121)))) (not (= x113 x121)))) (and (and (and (and (not (= x53 x43)) (and (and (and (not (= x115 x53)) (and (and (not (= x83 x115)) (and (not (= x53 x146)) (and (and (not (= x83 x146)) (not (= x146 x115))) (not (= x146 x43))))) (not (= x43 x115)))) (not (= x43 x83))) (not (= x83 x53)))) (and (not (= x156 x1)) (and (not (= x62 x156)) (and (and (not (= x156 x10)) (and (not (= x1 x10)) (and (not (= x62 x10)) (and (not (= x122 x156)) (and (not (= x1 x122)) (and (not (= x122 x62)) (not (= x122 x10)))))))) (not (= x1 x62)))))) (and (not (= x56 x31)) (and (and (and (and (not (= x25 x56)) (and (and (and (and (not (= x36 x147)) (not (= x36 x25))) (not (= x36 x56))) (not (= x31 x36))) (not (= x25 x147)))) (not (= x25 x31))) (not (= x147 x56))) (not (= x31 x147))))) (and (and (not (= x136 x129)) (and (not (= x123 x136)) (and (and (and (not (= x87 x136)) (and (and (and (not (= x76 x136)) (not (= x87 x76))) (not (= x123 x76))) (not (= x129 x76)))) (not (= x123 x87))) (not (= x129 x87))))) (not (= x129 x123))))))))
(assert (let ((x106 (x64 x82 x82)) (x5 (x64 x9 x82)) (x66 (x64 x9 x3)) (x7 (x64 x158 x82)) (x79 (x64 x158 x158)) (x42 (x64 x68 x9)) (x134 (x64 x3 x158)) (x65 (x64 x82 x9)) (x4 (x64 x3 x9)) (x57 (x64 x68 x158)) (x26 (x64 x3 x68)) (x80 (x64 x82 x68)) (x140 (x64 x68 x3)) (x30 (x64 x3 x3)) (x71 (x64 x68 x68)) (x35 (x64 x9 x68)) (x73 (x64 x158 x3)) (x13 (x64 x82 x3)) (x138 (x64 x9 x9)) (x117 (x64 x3 x82)) (x154 (x64 x158 x9)) (x17 (x64 x82 x158)) (x34 (x64 x68 x82)) (x18 (x64 x158 x68)) (x96 (x64 x9 x158))) (let ((x53 (not (= x158 x134))) (x147 (not (= x158 x65))) (x152 (not (= x57 x68))) (x81 (not (= x82 x13))) (x50 (not (= x17 x82))) (x8 (not (= x3 x140))) (x115 (not (= x17 x158))) (x113 (not (= x158 x42))) (x56 (not (= x66 x158))) (x69 (not (= x154 x9))) (x74 (not (= x106 x82))) (x112 (not (= x3 x71))) (x41 (not (= x140 x9))) (x100 (not (= x82 x18))) (x93 (not (= x140 x158))) (x133 (not (= x4 x82))) (x144 (not (= x82 x96))) (x84 (not (= x26 x158))) (x72 (not (= x13 x3))) (x108 (not (= x82 x79))) (x21 (not (= x3 x18))) (x153 (not (= x3 x66))) (x90 (not (= x73 x9))) (x150 (not (= x106 x9))) (x95 (not (= x42 x68))) (x25 (not (= x5 x158))) (x55 (not (= x82 x138))) (x38 (not (= x134 x3))) (x141 (not (= x30 x3))) (x45 (not (= x66 x9))) (x40 (not (= x79 x68))) (x62 (not (= x13 x158))) (x146 (not (= x79 x158))) (x87 (not (= x158 x57))) (x23 (not (= x5 x3))) (x70 (not (= x3 x80))) (x2 (not (= x3 x26))) (x127 (not (= x82 x66))) (x89 (not (= x79 x3))) (x77 (not (= x106 x68))) (x88 (not (= x17 x3))) (x128 (not (= x79 x9))) (x36 (not (= x158 x154))) (x139 (not (= x154 x3))) (x114 (not (= x9 x34))) (x48 (not (= x96 x68))) (x1 (not (= x30 x158))) (x39 (not (= x9 x80))) (x67 (not (= x34 x82))) (x16 (not (= x71 x82))) (x137 (not (= x3 x7))) (x78 (not (= x35 x9))) (x126 (not (= x18 x68))) (x125 (not (= x13 x9))) (x121 (not (= x158 x71))) (x47 (not (= x35 x3))) (x63 (not (= x73 x68))) (x75 (not (= x3 x138))) (x52 (not (= x5 x82))) (x98 (not (= x3 x117))) (x102 (not (= x82 x57))) (x109 (not (= x82 x65))) (x94 (not (= x9 x117))) (x58 (not (= x68 x17))) (x131 (not (= x3 x57))) (x24 (not (= x117 x82))) (x123 (not (= x158 x34))) (x124 (not (= x154 x68))) (x76 (not (= x158 x138))) (x130 (not (= x3 x106))) (x51 (not (= x68 x80))) (x33 (not (= x9 x30))) (x157 (not (= x68 x13))) (x54 (not (= x117 x68))) (x61 (not (= x5 x68))) (x86 (not (= x68 x71))) (x14 (not (= x68 x7))) (x107 (not (= x9 x71))) (x122 (not (= x73 x158))) (x119 (not (= x9 x42))) (x59 (not (= x96 x9))) (x103 (not (= x9 x4))) (x91 (not (= x34 x68))) (x28 (not (= x42 x3))) (x110 (not (= x68 x134))) (x97 (not (= x57 x9))) (x118 (not (= x82 x26))) (x149 (not (= x65 x9))) (x12 (not (= x26 x68))) (x11 (not (= x82 x30))) (x20 (not (= x9 x7))) (x92 (not (= x82 x80))) (x136 (not (= x158 x18))) (x44 (not (= x73 x3))) (x105 (not (= x3 x34))) (x85 (not (= x73 x82))) (x99 (not (= x154 x82))) (x49 (not (= x138 x9))) (x116 (not (= x68 x140))) (x31 (not (= x4 x158))) (x142 (not (= x42 x82))) (x27 (not (= x3 x4))) (x46 (not (= x134 x82))) (x32 (not (= x3 x96))) (x29 (not (= x66 x68))) (x60 (not (= x18 x9))) (x156 (not (= x158 x96))) (x15 (not (= x158 x35))) (x155 (not (= x9 x5))) (x145 (not (= x68 x30))) (x6 (not (= x82 x140))) (x132 (not (= x65 x68))) (x129 (not (= x158 x80))) (x111 (not (= x82 x7))) (x22 (not (= x65 x3))) (x83 (not (= x158 x7))) (x151 (not (= x26 x9))) (x143 (not (= x82 x35))) (x10 (not (= x158 x117))) (x43 (not (= x158 x106))) (x159 (not (= x68 x138))) (x101 (not (= x35 x68))) (x19 (not (= x9 x134))) (x120 (not (= x4 x68))) (x148 (not (= x9 x17)))) (or (and (and (and (or x95 x101) (and (or x116 x12) (and (or x152 x126) (or x51 x91)))) (or x86 x86)) (and (and (and (and (or x120 x29) (and (and (or x110 x63) (or x54 x157)) (or x145 x145))) (or x116 x12)) (and (and (or x152 x126) (and (and (and (or x40 x40) (or x14 x58)) (or x110 x63)) (or x48 x124))) (and (or x51 x91) (and (or x132 x61) (and (and (or x58 x14) (or x77 x77)) (or x157 x54)))))) (and (or x95 x101) (and (or x159 x159) (and (and (or x132 x61) (or x124 x48)) (or x29 x120)))))) (or (or (or (and (and (and (or x15 x113) (and (and (or x56 x31) (and (or x25 x147) (or x36 x156))) (or x76 x76))) (and (and (and (or x136 x87) (and (and (and (or x146 x146) (or x115 x83)) (or x53 x122)) (or x156 x36))) (and (and (and (or x10 x62) (and (or x43 x43) (or x83 x115))) (or x147 x25)) (or x123 x129))) (and (and (or x56 x31) (and (and (or x10 x62) (or x53 x122)) (or x1 x1))) (or x84 x93)))) (and (or x121 x121) (and (and (or x84 x93) (and (or x87 x136) (or x123 x129))) (or x15 x113)))) (and (and (and (and (and (and (or x144 x99) (and (and (or x108 x108) (or x50 x111)) (or x85 x46))) (or x100 x102)) (and (and (and (and (or x74 x74) (or x111 x50)) (or x24 x81)) (or x109 x52)) (or x67 x92))) (and (or x6 x118) (and (and (or x11 x11) (and (or x46 x85) (or x24 x81))) (or x127 x133)))) (and (or x143 x142) (and (and (or x127 x133) (and (or x109 x52) (or x144 x99))) (or x55 x55)))) (and (or x16 x16) (and (and (or x6 x118) (and (or x67 x92) (or x102 x100))) (or x143 x142))))) (and (and (and (or x28 x47) (and (or x2 x8) (and (or x21 x131) (or x105 x70)))) (or x112 x112)) (and (and (and (or x2 x8) (and (and (and (or x72 x98) (or x38 x44)) (or x141 x141)) (or x27 x153))) (and (and (or x131 x21) (and (and (or x44 x38) (and (or x88 x137) (or x89 x89))) (or x139 x32))) (and (or x70 x105) (and (or x22 x23) (and (and (or x130 x130) (or x88 x137)) (or x72 x98)))))) (and (or x28 x47) (and (and (and (or x139 x32) (or x22 x23)) (or x153 x27)) (or x75 x75)))))) (and (and (and (or x119 x78) (and (or x49 x49) (and (or x103 x45) (and (or x149 x155) (or x69 x59))))) (and (and (and (and (or x155 x149) (and (and (or x148 x20) (or x150 x150)) (or x125 x94))) (or x39 x114)) (and (and (or x59 x69) (and (and (or x20 x148) (or x128 x128)) (or x19 x90))) (or x97 x60))) (and (or x41 x151) (and (or x45 x103) (and (or x33 x33) (and (or x90 x19) (or x94 x125))))))) (and (and (and (or x151 x41) (and (or x39 x114) (or x60 x97))) (or x78 x119)) (or x107 x107))))))))
(assert (let ((x15 (x64 x68 x9)) (x1 (x64 x82 x9)) (x25 (x64 x3 x82)) (x147 (x64 x3 x3)) (x136 (x64 x9 x3)) (x113 (x64 x68 x3)) (x53 (x64 x158 x68)) (x56 (x64 x3 x9)) (x84 (x64 x68 x82)) (x129 (x64 x9 x68)) (x76 (x64 x9 x158)) (x83 (x64 x158 x3)) (x123 (x64 x9 x9)) (x36 (x64 x3 x158)) (x93 (x64 x68 x158)) (x87 (x64 x9 x82)) (x121 (x64 x68 x68)) (x156 (x64 x82 x68)) (x115 (x64 x158 x82)) (x62 (x64 x82 x3)) (x43 (x64 x158 x9)) (x31 (x64 x3 x68)) (x146 (x64 x158 x158)) (x122 (x64 x82 x158)) (x10 (x64 x82 x82))) (or (or (or (or (and (and (and (and (not (= x82 (x64 x115 x115))) (not (= x158 (x64 x146 x146)))) (not (= (x64 x83 x83) x3))) (not (= x9 (x64 x43 x43)))) (not (= (x64 x53 x53) x68))) (and (and (not (= x9 (x64 x1 x1))) (and (and (not (= x158 (x64 x122 x122))) (not (= x82 (x64 x10 x10)))) (not (= x3 (x64 x62 x62))))) (not (= (x64 x156 x156) x68)))) (and (not (= x68 (x64 x31 x31))) (and (and (and (not (= x82 (x64 x25 x25))) (not (= x158 (x64 x36 x36)))) (not (= (x64 x147 x147) x3))) (not (= (x64 x56 x56) x9))))) (and (and (and (not (= x3 (x64 x136 x136))) (and (not (= x158 (x64 x76 x76))) (not (= x82 (x64 x87 x87))))) (not (= x9 (x64 x123 x123)))) (not (= x68 (x64 x129 x129))))) (and (not (= (x64 x121 x121) x68)) (and (and (and (not (= (x64 x84 x84) x82)) (not (= x158 (x64 x93 x93)))) (not (= (x64 x113 x113) x3))) (not (= (x64 x15 x15) x9)))))))
(assert (let ((x50 (x64 x9 x3)) (x18 (x64 x9 x82)) (x31 (x64 x158 x3)) (x62 (x64 x9 x158)) (x115 (x64 x158 x158)) (x76 (x64 x158 x9)) (x87 (x64 x158 x68)) (x108 (x64 x3 x82)) (x15 (x64 x82 x68)) (x34 (x64 x68 x68)) (x84 (x64 x82 x3)) (x117 (x64 x68 x82)) (x73 (x64 x3 x9)) (x5 (x64 x68 x3)) (x43 (x64 x82 x158)) (x106 (x64 x9 x68)) (x156 (x64 x68 x158)) (x17 (x64 x3 x3)) (x122 (x64 x3 x158)) (x134 (x64 x3 x68)) (x147 (x64 x158 x82)) (x80 (x64 x68 x9)) (x129 (x64 x82 x82)) (x111 (x64 x9 x9)) (x113 (x64 x82 x9))) (let ((x95 (= x80 x68)) (x1 (= x158 x156)) (x51 (= x34 x82)) (x6 (= x5 x3)) (x144 (= x3 x122)) (x96 (= x18 x158)) (x91 (= x68 x117)) (x14 (= x68 x17)) (x44 (= x82 x113)) (x35 (= x50 x82)) (x136 (= x82 x43)) (x56 (= x147 x82)) (x81 (= x31 x82)) (x121 (= x122 x82)) (x12 (= x3 x34)) (x75 (= x9 x73)) (x90 (= x115 x68)) (x38 (= x129 x9)) (x26 (= x84 x82)) (x59 (= x31 x68)) (x97 (= x129 x68)) (x123 (= x129 x158)) (x61 (= x50 x68)) (x120 (= x9 x106)) (x39 (= x15 x3)) (x27 (= x73 x3)) (x32 (= x9 x122)) (x159 (= x106 x68)) (x103 (= x68 x43)) (x20 (= x9 x5)) (x140 (= x3 x84)) (x157 (= x62 x68)) (x133 (= x62 x3)) (x78 (= x122 x68)) (x126 (= x34 x158)) (x7 (= x108 x82)) (x45 (= x68 x87)) (x66 (= x3 x129)) (x124 (= x106 x82)) (x33 (= x82 x87)) (x99 (= x17 x158)) (x2 (= x3 x111)) (x71 (= x82 x76)) (x107 (= x134 x158)) (x155 (= x68 x76)) (x143 (= x147 x9)) (x23 (= x9 x108)) (x53 (= x158 x122)) (x67 (= x117 x3)) (x92 (= x82 x5)) (x47 (= x156 x9)) (x25 (= x158 x147)) (x94 (= x158 x87)) (x101 (= x34 x9)) (x116 (= x68 x5)) (x137 (= x9 x43)) (x72 (= x3 x113)) (x54 (= x134 x68)) (x128 (= x9 x117)) (x149 (= x87 x9)) (x63 (= x134 x9)) (x49 (= x158 x15)) (x146 (= x158 x115)) (x132 (= x106 x3)) (x114 (= x68 x84)) (x29 (= x111 x68)) (x10 (= x62 x158)) (x11 (= x43 x3)) (x28 (= x9 x111)) (x30 (= x3 x31)) (x152 (= x156 x68)) (x139 (= x158 x73)) (x142 (= x158 x76)) (x57 (= x82 x18)) (x118 (= x115 x9)) (x150 (= x80 x3)) (x36 (= x82 x115)) (x131 (= x9 x62)) (x8 (= x50 x9)) (x21 (= x158 x111)) (x98 (= x84 x9)) (x65 (= x117 x82)) (x40 (= x108 x68)) (x46 (= x3 x115)) (x52 (= x108 x3)) (x42 (= x50 x3)) (x4 (= x84 x158)) (x41 (= x113 x68)) (x60 (= x15 x82)) (x130 (= x113 x158)) (x16 (= x31 x9)) (x105 (= x9 x18)) (x145 (= x106 x158)) (x86 (= x68 x34)) (x69 (= x87 x3)) (x93 (= x82 x129)) (x89 (= x3 x76)) (x125 (= x147 x68)) (x24 (= x147 x3)) (x74 (= x156 x82)) (x85 (= x158 x31)) (x112 (= x80 x158)) (x13 (= x158 x117)) (x48 (= x68 x18)) (x102 (= x156 x3)) (x141 (= x113 x9)) (x127 (= x3 x17)) (x22 (= x73 x82)) (x154 (= x62 x82)) (x138 (= x158 x50)) (x70 (= x82 x111)) (x109 (= x82 x17)) (x110 (= x73 x68)) (x83 (= x43 x158)) (x119 (= x15 x68)) (x153 (= x17 x9)) (x19 (= x80 x9)) (x79 (= x108 x158)) (x58 (= x82 x134)) (x151 (= x15 x9)) (x148 (= x80 x82)) (x77 (= x3 x134)) (x100 (= x158 x5)) (x88 (= x76 x9)) (x55 (= x3 x18))) (or (and (and (and (and (or x120 (not x29)) (and (and (or x124 (not x48)) (or (not x157) x145)) (or x132 (not x61)))) (or (not x159) x159)) (and (and (and (or x119 (not x119)) (and (and (or x39 (not x114)) (and (or (not x97) x60) (or x49 (not x103)))) (or (not x41) x151))) (and (and (and (or x69 (not x59)) (and (or x94 (not x90)) (or (not x125) x33))) (or (not x155) x149)) (or (not x45) x45))) (and (and (or x63 (not x110)) (and (or (not x14) x77) (and (or (not x40) x58) (or (not x78) x107)))) (or x54 (not x54))))) (and (and (or (not x95) x101) (and (or (not x116) x12) (and (or (not x152) x126) (or x51 (not x91))))) (or x86 (not x86)))) (or (or (and (and (and (and (and (and (or x98 (not x72)) (and (and (or x4 (not x11)) (or x26 (not x66))) (or x140 (not x140)))) (or x114 (not x39))) (and (or (not x69) x59) (and (and (or (not x30) x30) (and (or (not x24) x81) (or (not x46) x85))) (or (not x89) x16)))) (and (or (not x77) x14) (and (or x153 (not x27)) (and (or x127 (not x127)) (and (or (not x144) x99) (or x109 (not x52))))))) (and (and (or (not x2) x8) (and (or (not x42) x42) (and (or x35 (not x55)) (or (not x133) x138)))) (or x61 (not x132)))) (and (or (not x12) x116) (and (or x20 (not x150)) (and (or (not x6) x6) (and (or (not x102) x100) (or x92 (not x67))))))) (or (and (and (and (and (and (and (and (or x66 (not x26)) (and (or x93 (not x93)) (or x123 (not x136)))) (or x38 (not x44))) (or x97 (not x60))) (and (or x125 (not x33)) (and (or (not x71) x143) (and (and (or (not x56) x56) (or x25 (not x36))) (or (not x81) x24))))) (and (and (or x23 (not x22)) (and (or (not x109) x52) (and (or x79 (not x121)) (or (not x7) x7)))) (or (not x58) x40))) (and (or x48 (not x124)) (and (or x105 (not x70)) (and (or x55 (not x35)) (and (or (not x154) x96) (or x57 (not x57))))))) (and (or (not x51) x91) (and (or x128 (not x148)) (and (and (or x13 (not x74)) (or x65 (not x65))) (or x67 (not x92)))))) (and (and (and (or (not x112) x47) (and (and (or (not x1) x1) (or (not x13) x74)) (or (not x100) x102))) (or x152 (not x126))) (and (and (or x157 (not x145)) (and (and (or x133 (not x138)) (and (or (not x10) x10) (or x154 (not x96)))) (or (not x21) x131))) (and (and (or x78 (not x107)) (and (and (and (or x121 (not x79)) (or (not x53) x53)) (or x144 (not x99))) (or x32 (not x139)))) (and (and (or (not x49) x103) (and (or x137 (not x130)) (and (and (or (not x123) x136) (or (not x83) x83)) (or x11 (not x4))))) (and (and (or (not x142) x118) (and (or (not x85) x46) (and (or x146 (not x146)) (or (not x25) x36)))) (or x90 (not x94))))))))) (and (and (and (and (and (or (not x47) x112) (or (not x128) x148)) (or x150 (not x20))) (or x19 (not x19))) (or (not x101) x95)) (and (and (or (not x120) x29) (and (or (not x28) x28) (and (and (or (not x105) x70) (or (not x131) x21)) (or x2 (not x8))))) (and (and (or (not x63) x110) (and (and (or x27 (not x153)) (and (or (not x23) x22) (or x139 (not x32)))) (or x75 (not x75)))) (and (and (and (or (not x141) x141) (and (and (or x130 (not x137)) (or x44 (not x38))) (or x72 (not x98)))) (or x41 (not x151))) (and (or (not x149) x155) (and (or (not x88) x88) (and (and (or x71 (not x143)) (or (not x118) x142)) (or (not x16) x89)))))))))))))
(assert (or (= (x64 x68 (x64 x68 x68)) x68) (or (= x9 (x64 x9 (x64 x9 x9))) (or (or (= x82 (x64 x82 (x64 x82 x82))) (= (x64 x158 (x64 x158 x158)) x158)) (= x3 (x64 x3 (x64 x3 x3)))))))
(check-sat)
(exit)
